c strEdges: 125  randomEdges: 504 
c degrees:  1  2 
c girth: Inf max: -43.604516  
c Hgirth mixed MAXCUT instance
c generated from an undirected graph
c to solve unweighted MaxCut
p cnf 140 1258
104 53 0
-104 -53 0
6 66 0
-6 -66 0
43 113 0
-43 -113 0
43 33 0
-43 -33 0
122 59 0
-122 -59 0
122 111 0
-122 -111 0
5 135 0
-5 -135 0
5 53 0
-5 -53 0
85 129 0
-85 -129 0
85 71 0
-85 -71 0
73 80 0
-73 -80 0
10 91 0
-10 -91 0
10 80 0
-10 -80 0
42 130 0
-42 -130 0
42 18 0
-42 -18 0
48 110 0
-48 -110 0
48 51 0
-48 -51 0
25 121 0
-25 -121 0
25 69 0
-25 -69 0
116 103 0
-116 -103 0
116 91 0
-116 -91 0
47 137 0
-47 -137 0
98 21 0
-98 -21 0
98 35 0
-98 -35 0
96 35 0
-96 -35 0
128 37 0
-128 -37 0
128 66 0
-128 -66 0
54 3 0
-54 -3 0
54 88 0
-54 -88 0
136 83 0
-136 -83 0
136 67 0
-136 -67 0
68 72 0
-68 -72 0
68 103 0
-68 -103 0
79 67 0
-79 -67 0
79 21 0
-79 -21 0
140 86 0
-140 -86 0
93 78 0
-93 -78 0
93 28 0
-93 -28 0
65 124 0
-65 -124 0
65 139 0
-65 -139 0
94 23 0
-94 -23 0
94 87 0
-94 -87 0
81 15 0
-81 -15 0
81 23 0
-81 -23 0
34 22 0
-34 -22 0
108 19 0
-108 -19 0
108 131 0
-108 -131 0
27 63 0
-27 -63 0
27 75 0
-27 -75 0
60 126 0
-60 -126 0
60 59 0
-60 -59 0
134 90 0
-134 -90 0
134 86 0
-134 -86 0
107 33 0
-107 -33 0
107 31 0
-107 -31 0
114 100 0
-114 -100 0
114 37 0
-114 -37 0
61 138 0
-61 -138 0
29 7 0
-29 -7 0
29 72 0
-29 -72 0
39 14 0
-39 -14 0
2 32 0
-2 -32 0
2 4 0
-2 -4 0
16 117 0
-16 -117 0
16 26 0
-16 -26 0
76 38 0
-76 -38 0
76 133 0
-76 -133 0
82 139 0
-82 -139 0
82 20 0
-82 -20 0
11 18 0
-11 -18 0
11 137 0
-11 -137 0
50 56 0
-50 -56 0
50 74 0
-50 -74 0
30 40 0
-30 -40 0
30 109 0
-30 -109 0
1 89 0
-1 -89 0
1 7 0
-1 -7 0
84 131 0
-84 -131 0
84 52 0
-84 -52 0
12 77 0
-12 -77 0
12 113 0
-12 -113 0
9 28 0
-9 -28 0
9 89 0
-9 -89 0
58 112 0
-58 -112 0
58 32 0
-58 -32 0
120 20 0
-120 -20 0
120 112 0
-120 -112 0
102 111 0
-102 -111 0
102 110 0
-102 -110 0
57 64 0
-57 -64 0
57 40 0
-57 -40 0
119 71 0
-119 -71 0
101 87 0
-101 -87 0
127 105 0
-127 -105 0
127 77 0
-127 -77 0
41 4 0
-41 -4 0
41 118 0
-41 -118 0
99 109 0
-99 -109 0
55 88 0
-55 -88 0
55 38 0
-55 -38 0
36 26 0
-36 -26 0
36 105 0
-36 -105 0
123 69 0
-123 -69 0
123 100 0
-123 -100 0
92 31 0
-92 -31 0
92 90 0
-92 -90 0
46 51 0
-46 -51 0
46 19 0
-46 -19 0
13 17 0
-13 -17 0
13 117 0
-13 -117 0
95 8 0
-95 -8 0
95 138 0
-95 -138 0
45 118 0
-45 -118 0
45 121 0
-45 -121 0
70 125 0
-70 -125 0
24 74 0
-24 -74 0
24 3 0
-24 -3 0
97 52 0
-97 -52 0
97 78 0
-97 -78 0
106 44 0
-106 -44 0
132 133 0
-132 -133 0
49 75 0
-49 -75 0
49 135 0
-49 -135 0
62 115 0
-62 -115 0
62 8 0
-62 -8 0
43 94 0
-43 -94 0
47 22 0
-47 -22 0
43 66 0
-43 -66 0
36 35 0
-36 -35 0
91 124 0
-91 -124 0
123 18 0
-123 -18 0
122 100 0
-122 -100 0
54 123 0
-54 -123 0
25 17 0
-25 -17 0
129 118 0
-129 -118 0
3 105 0
-3 -105 0
45 135 0
-45 -135 0
35 31 0
-35 -31 0
29 69 0
-29 -69 0
77 111 0
-77 -111 0
53 124 0
-53 -124 0
38 4 0
-38 -4 0
37 87 0
-37 -87 0
16 40 0
-16 -40 0
116 67 0
-116 -67 0
15 133 0
-15 -133 0
1 90 0
-1 -90 0
1 127 0
-1 -127 0
104 31 0
-104 -31 0
94 55 0
-94 -55 0
101 125 0
-101 -125 0
1 129 0
-1 -129 0
62 118 0
-62 -118 0
47 131 0
-47 -131 0
16 45 0
-16 -45 0
96 23 0
-96 -23 0
30 118 0
-30 -118 0
54 24 0
-54 -24 0
27 117 0
-27 -117 0
58 4 0
-58 -4 0
112 51 0
-112 -51 0
67 31 0
-67 -31 0
10 97 0
-10 -97 0
25 78 0
-25 -78 0
120 33 0
-120 -33 0
127 69 0
-127 -69 0
101 33 0
-101 -33 0
73 44 0
-73 -44 0
30 86 0
-30 -86 0
36 109 0
-36 -109 0
55 115 0
-55 -115 0
42 124 0
-42 -124 0
45 8 0
-45 -8 0
140 97 0
-140 -97 0
126 18 0
-126 -18 0
99 67 0
-99 -67 0
85 9 0
-85 -9 0
108 55 0
-108 -55 0
3 118 0
-3 -118 0
24 109 0
-24 -109 0
108 91 0
-108 -91 0
93 90 0
-93 -90 0
9 88 0
-9 -88 0
92 97 0
-92 -97 0
61 58 0
-61 -58 0
59 51 0
-59 -51 0
60 26 0
-60 -26 0
3 139 0
-3 -139 0
106 133 0
-106 -133 0
85 50 0
-85 -50 0
54 36 0
-54 -36 0
65 121 0
-65 -121 0
25 13 0
-25 -13 0
61 66 0
-61 -66 0
46 40 0
-46 -40 0
132 131 0
-132 -131 0
5 102 0
-5 -102 0
32 115 0
-32 -115 0
94 90 0
-94 -90 0
88 31 0
-88 -31 0
81 1 0
-81 -1 0
116 129 0
-116 -129 0
65 14 0
-65 -14 0
96 22 0
-96 -22 0
29 99 0
-29 -99 0
22 74 0
-22 -74 0
61 20 0
-61 -20 0
127 130 0
-127 -130 0
93 21 0
-93 -21 0
107 129 0
-107 -129 0
35 51 0
-35 -51 0
6 92 0
-6 -92 0
135 91 0
-135 -91 0
76 52 0
-76 -52 0
19 64 0
-19 -64 0
108 3 0
-108 -3 0
81 67 0
-81 -67 0
84 4 0
-84 -4 0
2 78 0
-2 -78 0
116 56 0
-116 -56 0
79 69 0
-79 -69 0
121 133 0
-121 -133 0
111 115 0
-111 -115 0
29 115 0
-29 -115 0
126 133 0
-126 -133 0
136 19 0
-136 -19 0
82 57 0
-82 -57 0
68 109 0
-68 -109 0
2 37 0
-2 -37 0
106 31 0
-106 -31 0
81 3 0
-81 -3 0
9 120 0
-9 -120 0
94 46 0
-94 -46 0
128 68 0
-128 -68 0
127 22 0
-127 -22 0
3 26 0
-3 -26 0
140 81 0
-140 -81 0
84 3 0
-84 -3 0
48 108 0
-48 -108 0
13 74 0
-13 -74 0
84 31 0
-84 -31 0
101 105 0
-101 -105 0
108 137 0
-108 -137 0
112 87 0
-112 -87 0
89 52 0
-89 -52 0
72 75 0
-72 -75 0
9 69 0
-9 -69 0
43 62 0
-43 -62 0
127 31 0
-127 -31 0
27 103 0
-27 -103 0
32 71 0
-32 -71 0
94 21 0
-94 -21 0
10 31 0
-10 -31 0
63 109 0
-63 -109 0
92 125 0
-92 -125 0
119 80 0
-119 -80 0
124 115 0
-124 -115 0
48 41 0
-48 -41 0
89 112 0
-89 -112 0
126 64 0
-126 -64 0
104 66 0
-104 -66 0
130 115 0
-130 -115 0
119 86 0
-119 -86 0
83 23 0
-83 -23 0
29 31 0
-29 -31 0
98 95 0
-98 -95 0
79 97 0
-79 -97 0
43 98 0
-43 -98 0
106 59 0
-106 -59 0
58 7 0
-58 -7 0
50 59 0
-50 -59 0
59 38 0
-59 -38 0
9 102 0
-9 -102 0
5 123 0
-5 -123 0
47 128 0
-47 -128 0
106 100 0
-106 -100 0
42 26 0
-42 -26 0
41 97 0
-41 -97 0
86 4 0
-86 -4 0
98 112 0
-98 -112 0
137 69 0
-137 -69 0
29 40 0
-29 -40 0
96 124 0
-96 -124 0
128 33 0
-128 -33 0
25 39 0
-25 -39 0
104 7 0
-104 -7 0
82 46 0
-82 -46 0
104 115 0
-104 -115 0
68 130 0
-68 -130 0
140 76 0
-140 -76 0
93 29 0
-93 -29 0
134 84 0
-134 -84 0
30 52 0
-30 -52 0
46 31 0
-46 -31 0
85 60 0
-85 -60 0
139 51 0
-139 -51 0
140 1 0
-140 -1 0
99 31 0
-99 -31 0
67 138 0
-67 -138 0
67 71 0
-67 -71 0
5 87 0
-5 -87 0
25 46 0
-25 -46 0
35 75 0
-35 -75 0
113 139 0
-113 -139 0
132 72 0
-132 -72 0
123 56 0
-123 -56 0
60 72 0
-60 -72 0
98 55 0
-98 -55 0
98 4 0
-98 -4 0
120 135 0
-120 -135 0
95 97 0
-95 -97 0
48 131 0
-48 -131 0
98 127 0
-98 -127 0
20 111 0
-20 -111 0
93 125 0
-93 -125 0
43 139 0
-43 -139 0
60 113 0
-60 -113 0
107 46 0
-107 -46 0
45 37 0
-45 -37 0
116 114 0
-116 -114 0
138 17 0
-138 -17 0
16 58 0
-16 -58 0
14 139 0
-14 -139 0
48 67 0
-48 -67 0
109 74 0
-109 -74 0
39 38 0
-39 -38 0
116 51 0
-116 -51 0
132 125 0
-132 -125 0
34 127 0
-34 -127 0
5 10 0
-5 -10 0
108 33 0
-108 -33 0
29 35 0
-29 -35 0
7 4 0
-7 -4 0
16 28 0
-16 -28 0
82 78 0
-82 -78 0
50 125 0
-50 -125 0
71 69 0
-71 -69 0
85 29 0
-85 -29 0
39 127 0
-39 -127 0
42 63 0
-42 -63 0
59 64 0
-59 -64 0
31 118 0
-31 -118 0
98 40 0
-98 -40 0
140 16 0
-140 -16 0
65 35 0
-65 -35 0
85 124 0
-85 -124 0
49 8 0
-49 -8 0
60 139 0
-60 -139 0
12 111 0
-12 -111 0
116 98 0
-116 -98 0
97 40 0
-97 -40 0
81 38 0
-81 -38 0
2 44 0
-2 -44 0
101 70 0
-101 -70 0
79 23 0
-79 -23 0
50 131 0
-50 -131 0
34 58 0
-34 -58 0
46 135 0
-46 -135 0
98 60 0
-98 -60 0
36 87 0
-36 -87 0
122 10 0
-122 -10 0
129 18 0
-129 -18 0
37 124 0
-37 -124 0
62 32 0
-62 -32 0
133 75 0
-133 -75 0
25 57 0
-25 -57 0
48 136 0
-48 -136 0
35 139 0
-35 -139 0
105 75 0
-105 -75 0
110 14 0
-110 -14 0
13 22 0
-13 -22 0
25 20 0
-25 -20 0
108 133 0
-108 -133 0
43 77 0
-43 -77 0
2 106 0
-2 -106 0
106 53 0
-106 -53 0
2 89 0
-2 -89 0
90 125 0
-90 -125 0
104 136 0
-104 -136 0
42 32 0
-42 -32 0
111 87 0
-111 -87 0
98 32 0
-98 -32 0
27 50 0
-27 -50 0
35 32 0
-35 -32 0
82 17 0
-82 -17 0
59 7 0
-59 -7 0
119 20 0
-119 -20 0
114 125 0
-114 -125 0
63 138 0
-63 -138 0
120 132 0
-120 -132 0
42 54 0
-42 -54 0
82 50 0
-82 -50 0
107 115 0
-107 -115 0
120 69 0
-120 -69 0
106 37 0
-106 -37 0
47 136 0
-47 -136 0
14 125 0
-14 -125 0
107 89 0
-107 -89 0
108 38 0
-108 -38 0
58 130 0
-58 -130 0
66 40 0
-66 -40 0
65 78 0
-65 -78 0
53 63 0
-53 -63 0
5 91 0
-5 -91 0
1 38 0
-1 -38 0
16 53 0
-16 -53 0
107 3 0
-107 -3 0
68 139 0
-68 -139 0
128 115 0
-128 -115 0
4 125 0
-4 -125 0
72 20 0
-72 -20 0
29 106 0
-29 -106 0
45 77 0
-45 -77 0
137 52 0
-137 -52 0
11 75 0
-11 -75 0
128 20 0
-128 -20 0
60 3 0
-60 -3 0
80 139 0
-80 -139 0
68 127 0
-68 -127 0
93 89 0
-93 -89 0
2 102 0
-2 -102 0
30 1 0
-30 -1 0
105 115 0
-105 -115 0
6 132 0
-6 -132 0
85 77 0
-85 -77 0
27 44 0
-27 -44 0
61 3 0
-61 -3 0
13 111 0
-13 -111 0
29 105 0
-29 -105 0
30 64 0
-30 -64 0
129 109 0
-129 -109 0
43 96 0
-43 -96 0
85 97 0
-85 -97 0
96 1 0
-96 -1 0
11 21 0
-11 -21 0
49 131 0
-49 -131 0
39 30 0
-39 -30 0
108 112 0
-108 -112 0
3 75 0
-3 -75 0
13 38 0
-13 -38 0
134 52 0
-134 -52 0
34 38 0
-34 -38 0
65 16 0
-65 -16 0
137 20 0
-137 -20 0
41 131 0
-41 -131 0
36 14 0
-36 -14 0
79 70 0
-79 -70 0
14 117 0
-14 -117 0
140 56 0
-140 -56 0
99 59 0
-99 -59 0
114 110 0
-114 -110 0
66 21 0
-66 -21 0
119 17 0
-119 -17 0
80 17 0
-80 -17 0
90 17 0
-90 -17 0
7 89 0
-7 -89 0
95 69 0
-95 -69 0
98 44 0
-98 -44 0
6 134 0
-6 -134 0
94 130 0
-94 -130 0
10 30 0
-10 -30 0
94 29 0
-94 -29 0
83 15 0
-83 -15 0
29 83 0
-29 -83 0
89 31 0
-89 -31 0
77 20 0
-77 -20 0
10 36 0
-10 -36 0
42 22 0
-42 -22 0
116 112 0
-116 -112 0
132 130 0
-132 -130 0
60 53 0
-60 -53 0
55 36 0
-55 -36 0
10 120 0
-10 -120 0
106 56 0
-106 -56 0
137 63 0
-137 -63 0
58 75 0
-58 -75 0
80 14 0
-80 -14 0
39 55 0
-39 -55 0
77 74 0
-77 -74 0
128 30 0
-128 -30 0
45 138 0
-45 -138 0
23 15 0
-23 -15 0
96 140 0
-96 -140 0
30 132 0
-30 -132 0
23 126 0
-23 -126 0
42 123 0
-42 -123 0
123 13 0
-123 -13 0
102 130 0
-102 -130 0
47 36 0
-47 -36 0
111 51 0
-111 -51 0
126 100 0
-126 -100 0
123 49 0
-123 -49 0
98 8 0
-98 -8 0
34 53 0
-34 -53 0
79 83 0
-79 -83 0
122 107 0
-122 -107 0
43 42 0
-43 -42 0
128 103 0
-128 -103 0
110 35 0
-110 -35 0
76 17 0
-76 -17 0
7 131 0
-7 -131 0
93 41 0
-93 -41 0
129 91 0
-129 -91 0
122 115 0
-122 -115 0
14 32 0
-14 -32 0
33 18 0
-33 -18 0
42 127 0
-42 -127 0
99 15 0
-99 -15 0
33 88 0
-33 -88 0
97 111 0
-97 -111 0
36 117 0
-36 -117 0
14 56 0
-14 -56 0
106 125 0
-106 -125 0
42 59 0
-42 -59 0
84 69 0
-84 -69 0
27 115 0
-27 -115 0
96 45 0
-96 -45 0
130 89 0
-130 -89 0
79 29 0
-79 -29 0
98 15 0
-98 -15 0
101 95 0
-101 -95 0
81 56 0
-81 -56 0
34 40 0
-34 -40 0
136 134 0
-136 -134 0
104 121 0
-104 -121 0
63 14 0
-63 -14 0
102 119 0
-102 -119 0
114 51 0
-114 -51 0
82 1 0
-82 -1 0
16 50 0
-16 -50 0
1 45 0
-1 -45 0
21 20 0
-21 -20 0
32 28 0
-32 -28 0
57 33 0
-57 -33 0
65 33 0
-65 -33 0
129 125 0
-129 -125 0
27 64 0
-27 -64 0
6 70 0
-6 -70 0
93 112 0
-93 -112 0
73 91 0
-73 -91 0
106 88 0
-106 -88 0
130 74 0
-130 -74 0
79 64 0
-79 -64 0
76 14 0
-76 -14 0
126 112 0
-126 -112 0
93 139 0
-93 -139 0
110 83 0
-110 -83 0
102 127 0
-102 -127 0
89 87 0
-89 -87 0
113 21 0
-113 -21 0
27 53 0
-27 -53 0
122 38 0
-122 -38 0
88 115 0
-88 -115 0
113 59 0
-113 -59 0
47 105 0
-47 -105 0
11 67 0
-11 -67 0
96 71 0
-96 -71 0
23 31 0
-23 -31 0
53 51 0
-53 -51 0
134 24 0
-134 -24 0
27 78 0
-27 -78 0
25 44 0
-25 -44 0
36 69 0
-36 -69 0
111 109 0
-111 -109 0
23 88 0
-23 -88 0
71 26 0
-71 -26 0
22 63 0
-22 -63 0
116 127 0
-116 -127 0
100 89 0
-100 -89 0
87 88 0
-87 -88 0
89 125 0
-89 -125 0
18 56 0
-18 -56 0
95 111 0
-95 -111 0
107 53 0
-107 -53 0
51 75 0
-51 -75 0
27 129 0
-27 -129 0
131 51 0
-131 -51 0
101 36 0
-101 -36 0
113 23 0
-113 -23 0
132 110 0
-132 -110 0
49 32 0
-49 -32 0
79 26 0
-79 -26 0
88 17 0
-88 -17 0
11 44 0
-11 -44 0
12 9 0
-12 -9 0
135 115 0
-135 -115 0
49 52 0
-49 -52 0
42 94 0
-42 -94 0
130 21 0
-130 -21 0
18 112 0
-18 -112 0
93 87 0
-93 -87 0
39 92 0
-39 -92 0
132 117 0
-132 -117 0
65 26 0
-65 -26 0
73 74 0
-73 -74 0
25 36 0
-25 -36 0
10 62 0
-10 -62 0
49 4 0
-49 -4 0
29 121 0
-29 -121 0
18 4 0
-18 -4 0
120 31 0
-120 -31 0
130 100 0
-130 -100 0
65 80 0
-65 -80 0
39 118 0
-39 -118 0
97 56 0
-97 -56 0
82 18 0
-82 -18 0
102 100 0
-102 -100 0
121 64 0
-121 -64 0
95 51 0
-95 -51 0
113 118 0
-113 -118 0
40 71 0
-40 -71 0
45 106 0
-45 -106 0
86 20 0
-86 -20 0
68 31 0
-68 -31 0
122 75 0
-122 -75 0
89 74 0
-89 -74 0
45 129 0
-45 -129 0
85 75 0
-85 -75 0
63 20 0
-63 -20 0
136 93 0
-136 -93 0
27 87 0
-27 -87 0
65 129 0
-65 -129 0
97 133 0
-97 -133 0
41 14 0
-41 -14 0
73 49 0
-73 -49 0
2 18 0
-2 -18 0
61 127 0
-61 -127 0
39 1 0
-39 -1 0
135 133 0
-135 -133 0
